c clasp version 2.1.1
c Reading from p16.cnf
c Solving...
s SATISFIABLE

c Models        : 1+    
c Time          : 0.884s (Solving: 0.16s 1st Model: 0.16s Unsat: 0.00s)
c CPU Time      : 0.870s
c Choices       : 10887
c Conflicts     : 661
c Restarts      : 3      (Average: 220.33 Last: 138)

c Variables     : 205651 (Eliminated: 64387 Frozen:    0)
c Constraints   : 238159 (Binary: 64.5% Ternary: 34.2% Other:  1.3%)
c Lemmas        : 661    (Binary:  0.9% Ternary:  2.6% Other: 96.5%)
c   Conflict    : 661    (Average Length: 56.6) 
c   Loop        : 0      (Average Length: 0.0) 
c   Other       : 0      (Average Length: 0.0)
c   Deleted     : 0     
